NAME : portcgen-27-32
COMMENT : portcgen N=27, seed=32
TYPE : TSP
DIMENSION : 27
EDGE_WEIGHT_TYPE : EUC_2D
NODE_COORD_SECTION
1 -117255 -362262
2 -13084 -31618
3 -82396 235659
4 193693 -123226
5 -62861 -165596
6 -19656 -164306
7 -60862 145311
8 -6122 61484
9 29239 188624
10 -319033 -49558
11 -254523 44567
12 454440 -191298
13 -266208 29128
14 77504 -110262
15 -95477 -161807
16 -208976 -147495
17 -104609 -113958
18 214531 -108213
19 95614 261300
20 8534 40440
21 39290 -65709
22 143857 30735
23 -65710 51279
24 -50249 9636
25 177270 152357
26 299060 218848
27 90108 -104634
